75 1 2 100 99 
20 24 25 27 29 30 28 26 23 22 21 
43 42 41 40 44 46 45 48 51 50 52 49 47 
81 78 76 71 70 73 77 79 80 63 
67 65 62 74 72 61 64 68 66 69 
89 88 91 
57 55 54 53 56 58 60 59 
7 8 10 11 9 6 4 3 5 
32 33 31 35 37 38 39 36 34 
96 97 92 93 94 95 98 
13 17 18 19 15 16 14 12 
90 87 85 84 82 83 86 
